Maximize
  0.00228700379969895 Z_638_0_0 + 0.00987970302817994 Z_638_0_1
   + 0.8430025207161035 Z_638_0_2 + 0.00396478598971625 Z_638_0_3
   + 0.4422752995809202 Z_517_2_0 + 0.0565854216347468 Z_517_2_1
   + 0.0168267705108001 Z_517_2_2 + 0.017000039268175 Z_517_2_3
   + 0.00231674838079812 Z_517_0_0 + 0.0101837440100873 Z_517_0_1
   + 0.8097542973541162 Z_517_0_2 + 0.00356890767010856 Z_517_0_3
   + 0.00231674838079812 Z_517_1_0 + 0.0101837440100873 Z_517_1_1
   + 0.8097542973541162 Z_517_1_2 + 0.00356890767010856 Z_517_1_3
   + 0.0085612271402935 Z_362_0_0 + 0.5524541406661898 Z_362_0_1
   + 0.0196904591689003 Z_362_0_2 + 0.254216706831086 Z_362_0_3
   + 0.00319387056166999 Z_42_0_0 + 0.0427264072732957 Z_42_0_1
   + 0.0759526043274739 Z_42_0_2 + 0.078555006892305 Z_42_0_3
   + 0.00219771978287391 Z_337_0_0 + 0.00511079390950804 Z_337_0_1
   + 0.8308635384233477 Z_337_0_2 + 0.00628524470358016 Z_337_0_3
   + 0.0289389515295846 Z_624_2_0 + 0.0570016389508496 Z_624_2_1
   + 0.0208943277419602 Z_624_2_2 + 0.0355457295450525 Z_624_2_3
   + 0.00425661069073089 Z_624_1_0 + 0.0320996099855945 Z_624_1_1
   + 0.00636353642682048 Z_624_1_2 + 0.0389185691419903 Z_624_1_3
   + 0.1781681759703407 Z_624_5_0 + 0.4653880631450225 Z_624_5_1
   + 0.00507567902946083 Z_624_5_2 + 0.2861372455480732 Z_624_5_3
   + 0.0189968920455454 Z_624_4_0 + 0.0730196427045278 Z_624_4_1
   + 0.1074851350891225 Z_624_4_2 + 0.1691533020421201 Z_624_4_3
   + 0.0119549948857483 Z_624_0_0 + 0.6008670513813132 Z_624_0_1
   + 0.0951084573668674 Z_624_0_2 + 0.1844016618638119 Z_624_0_3
   + 0.1781681759703407 Z_624_6_0 + 0.4653880631450225 Z_624_6_1
   + 0.00507567902946083 Z_624_6_2 + 0.2861372455480732 Z_624_6_3
   + 0.1781681759703407 Z_624_3_0 + 0.4653880631450225 Z_624_3_1
   + 0.00507567902946083 Z_624_3_2 + 0.2861372455480732 Z_624_3_3
   + 0.1637461804787849 Z_199_1_0 + 0.0521459170345439 Z_199_1_1
   + 0.0270479018579717 Z_199_1_2 + 0.1419972068941467 Z_199_1_3
   + 0.00526156306626121 Z_199_0_0 + 0.00588772466174701 Z_199_0_1
   + 0.8077372015739241 Z_199_0_2 + 0.0474944690120129 Z_199_0_3
   + 0.00972915782246748 Z_199_2_0 + 0.1033340828387754 Z_199_2_1
   + 0.0204730663821745 Z_199_2_2 + 0.4196080156537093 Z_199_2_3
   + 0.0380789424785489 Z_199_3_0 + 0.092620227382954 Z_199_3_1
   + 0.044583845438222 Z_199_3_2 + 0.1122301040972428 Z_199_3_3
   + 0.1522269161814985 Z_341_1_0 + 0.0799092237549986 Z_341_1_1
   + 0.0263022817878018 Z_341_1_2 + 0.00290076301668821 Z_341_1_3
   + 0.00300190720743405 Z_341_0_0 + 0.00453119521506372 Z_341_0_1
   + 0.7982111163706256 Z_341_0_2 + 0.00553166933689256 Z_341_0_3
   + 0.0339890174159562 Z_341_2_0 + 0.2689081079084 Z_341_2_1
   + 0.0448872347187183 Z_341_2_2 + 0.0949124536250564 Z_341_2_3
   + 0.0468047321102072 Z_341_3_0 + 0.0670659367696755 Z_341_3_1
   + 0.00871428573755265 Z_341_3_2 + 0.4062309060252979 Z_341_3_3
   + 0.0755998134760852 Z_10_0_0 + 0.6802166498728989 Z_10_0_1
   + 0.0303940720471126 Z_10_0_2 + 0.00712441034858974 Z_10_0_3
   + 0.0552095890903418 Z_212_0_0 + 0.147069994308438 Z_212_0_1
   + 0.0190049487960948 Z_212_0_2 + 0.1560492432549271 Z_212_0_3
   + 0.0151663143412335 Z_237_0_0 + 0.1303667400026929 Z_237_0_1
   + 0.00634161266768276 Z_237_0_2 + 0.0387050693490779 Z_237_0_3 + [
   0.00417124749401798 Z_638_0_0 * Z_517_0_0
   + 5.931222210327113e-04 Z_638_0_0 * Z_517_1_0
   + 0.0015625 Z_638_0_0 * Z_362_0_0 + 0.000147929 Z_638_0_0 * Z_42_0_0
   + 0.4 Z_638_0_0 * Z_337_0_0
   + 1.8107741059302849e-04 Z_638_0_0 * Z_624_2_0
   + 1.6628236490360811e-04 Z_638_0_0 * Z_624_0_0
   + 9.5645e-05 Z_638_0_0 * Z_624_3_0 + 1.21122e-05 Z_638_0_0 * Z_199_0_0
   + 0.4 Z_638_0_0 * Z_341_0_0 + 2.82062e-05 Z_638_0_0 * Z_212_0_0
   + 0.00417124749401798 Z_638_0_1 * Z_517_0_1
   + 5.931222210327113e-04 Z_638_0_1 * Z_517_1_1
   + 0.0015625 Z_638_0_1 * Z_362_0_1 + 0.000147929 Z_638_0_1 * Z_42_0_1
   + 0.4 Z_638_0_1 * Z_337_0_1
   + 1.8107741059302849e-04 Z_638_0_1 * Z_624_2_1
   + 1.6628236490360811e-04 Z_638_0_1 * Z_624_0_1
   + 9.5645e-05 Z_638_0_1 * Z_624_3_1 + 1.21122e-05 Z_638_0_1 * Z_199_0_1
   + 0.4 Z_638_0_1 * Z_341_0_1 + 2.82062e-05 Z_638_0_1 * Z_212_0_1
   + 0.00417124749401798 Z_638_0_2 * Z_517_0_2
   + 5.931222210327113e-04 Z_638_0_2 * Z_517_1_2
   + 0.0015625 Z_638_0_2 * Z_362_0_2 + 0.000147929 Z_638_0_2 * Z_42_0_2
   + 0.4 Z_638_0_2 * Z_337_0_2
   + 1.8107741059302849e-04 Z_638_0_2 * Z_624_2_2
   + 1.6628236490360811e-04 Z_638_0_2 * Z_624_0_2
   + 9.5645e-05 Z_638_0_2 * Z_624_3_2 + 1.21122e-05 Z_638_0_2 * Z_199_0_2
   + 0.4 Z_638_0_2 * Z_341_0_2 + 2.82062e-05 Z_638_0_2 * Z_212_0_2
   + 0.00417124749401798 Z_638_0_3 * Z_517_0_3
   + 5.931222210327113e-04 Z_638_0_3 * Z_517_1_3
   + 0.0015625 Z_638_0_3 * Z_362_0_3 + 0.000147929 Z_638_0_3 * Z_42_0_3
   + 0.4 Z_638_0_3 * Z_337_0_3
   + 1.8107741059302849e-04 Z_638_0_3 * Z_624_2_3
   + 1.6628236490360811e-04 Z_638_0_3 * Z_624_0_3
   + 9.5645e-05 Z_638_0_3 * Z_624_3_3 + 1.21122e-05 Z_638_0_3 * Z_199_0_3
   + 0.4 Z_638_0_3 * Z_341_0_3 + 2.82062e-05 Z_638_0_3 * Z_212_0_3
   + 0.00118947083645209 Z_517_2_0 * Z_624_0_0
   + 6.8417928602746629e-04 Z_517_2_0 * Z_624_3_0
   + 0.4 Z_517_2_0 * Z_199_3_0 + 0.4 Z_517_2_0 * Z_341_1_0
   + 0.00118947083645209 Z_517_2_1 * Z_624_0_1
   + 6.8417928602746629e-04 Z_517_2_1 * Z_624_3_1
   + 0.4 Z_517_2_1 * Z_199_3_1 + 0.4 Z_517_2_1 * Z_341_1_1
   + 0.00118947083645209 Z_517_2_2 * Z_624_0_2
   + 6.8417928602746629e-04 Z_517_2_2 * Z_624_3_2
   + 0.4 Z_517_2_2 * Z_199_3_2 + 0.4 Z_517_2_2 * Z_341_1_2
   + 0.00118947083645209 Z_517_2_3 * Z_624_0_3
   + 6.8417928602746629e-04 Z_517_2_3 * Z_624_3_3
   + 0.4 Z_517_2_3 * Z_199_3_3 + 0.4 Z_517_2_3 * Z_341_1_3
   + 0.0534838069833453 Z_517_0_0 * Z_362_0_0
   + 0.0433048907388137 Z_517_0_0 * Z_42_0_0
   + 0.00417124749401798 Z_517_0_0 * Z_337_0_0
   + 3.6730945821854906e-04 Z_517_0_0 * Z_624_2_0
   + 0.00103771254014959 Z_517_0_0 * Z_624_5_0
   + 0.00103771254014959 Z_517_0_0 * Z_624_4_0
   + 0.00116780480080201 Z_517_0_0 * Z_624_0_0
   + 0.00103771254014959 Z_517_0_0 * Z_624_3_0
   + 0.1255794940120213 Z_517_0_0 * Z_199_0_0
   + 0.0840277777777777 Z_517_0_0 * Z_199_2_0
   + 0.00847048496818082 Z_517_0_0 * Z_199_3_0
   + 0.00847048496818082 Z_517_0_0 * Z_341_1_0
   + 0.00417124749401798 Z_517_0_0 * Z_341_0_0
   + 0.0140625 Z_517_0_0 * Z_341_2_0 + 0.1 Z_517_0_0 * Z_212_0_0
   + 2.44401e-07 Z_517_0_0 * Z_237_0_0
   + 0.0534838069833453 Z_517_0_1 * Z_362_0_1
   + 0.0433048907388137 Z_517_0_1 * Z_42_0_1
   + 0.00417124749401798 Z_517_0_1 * Z_337_0_1
   + 3.6730945821854906e-04 Z_517_0_1 * Z_624_2_1
   + 0.00103771254014959 Z_517_0_1 * Z_624_5_1
   + 0.00103771254014959 Z_517_0_1 * Z_624_4_1
   + 0.00116780480080201 Z_517_0_1 * Z_624_0_1
   + 0.00103771254014959 Z_517_0_1 * Z_624_3_1
   + 0.1255794940120213 Z_517_0_1 * Z_199_0_1
   + 0.0840277777777777 Z_517_0_1 * Z_199_2_1
   + 0.00847048496818082 Z_517_0_1 * Z_199_3_1
   + 0.00847048496818082 Z_517_0_1 * Z_341_1_1
   + 0.00417124749401798 Z_517_0_1 * Z_341_0_1
   + 0.0140625 Z_517_0_1 * Z_341_2_1 + 0.1 Z_517_0_1 * Z_212_0_1
   + 2.44401e-07 Z_517_0_1 * Z_237_0_1
   + 0.0534838069833453 Z_517_0_2 * Z_362_0_2
   + 0.0433048907388137 Z_517_0_2 * Z_42_0_2
   + 0.00417124749401798 Z_517_0_2 * Z_337_0_2
   + 3.6730945821854906e-04 Z_517_0_2 * Z_624_2_2
   + 0.00103771254014959 Z_517_0_2 * Z_624_5_2
   + 0.00103771254014959 Z_517_0_2 * Z_624_4_2
   + 0.00116780480080201 Z_517_0_2 * Z_624_0_2
   + 0.00103771254014959 Z_517_0_2 * Z_624_3_2
   + 0.1255794940120213 Z_517_0_2 * Z_199_0_2
   + 0.0840277777777777 Z_517_0_2 * Z_199_2_2
   + 0.00847048496818082 Z_517_0_2 * Z_199_3_2
   + 0.00847048496818082 Z_517_0_2 * Z_341_1_2
   + 0.00417124749401798 Z_517_0_2 * Z_341_0_2
   + 0.0140625 Z_517_0_2 * Z_341_2_2 + 0.1 Z_517_0_2 * Z_212_0_2
   + 2.44401e-07 Z_517_0_2 * Z_237_0_2
   + 0.0534838069833453 Z_517_0_3 * Z_362_0_3
   + 0.0433048907388137 Z_517_0_3 * Z_42_0_3
   + 0.00417124749401798 Z_517_0_3 * Z_337_0_3
   + 3.6730945821854906e-04 Z_517_0_3 * Z_624_2_3
   + 0.00103771254014959 Z_517_0_3 * Z_624_5_3
   + 0.00103771254014959 Z_517_0_3 * Z_624_4_3
   + 0.00116780480080201 Z_517_0_3 * Z_624_0_3
   + 0.00103771254014959 Z_517_0_3 * Z_624_3_3
   + 0.1255794940120213 Z_517_0_3 * Z_199_0_3
   + 0.0840277777777777 Z_517_0_3 * Z_199_2_3
   + 0.00847048496818082 Z_517_0_3 * Z_199_3_3
   + 0.00847048496818082 Z_517_0_3 * Z_341_1_3
   + 0.00417124749401798 Z_517_0_3 * Z_341_0_3
   + 0.0140625 Z_517_0_3 * Z_341_2_3 + 0.1 Z_517_0_3 * Z_212_0_3
   + 2.44401e-07 Z_517_0_3 * Z_237_0_3
   + 0.1478323327436647 Z_517_1_0 * Z_362_0_0
   + 0.0713194775226989 Z_517_1_0 * Z_42_0_0
   + 5.931222210327113e-04 Z_517_1_0 * Z_337_0_0
   + 5.22288e-05 Z_517_1_0 * Z_624_2_0
   + 0.020269659392327 Z_517_1_0 * Z_624_5_0
   + 1.4755546571851768e-04 Z_517_1_0 * Z_624_4_0
   + 0.0190879342986045 Z_517_1_0 * Z_624_0_0
   + 0.020269659392327 Z_517_1_0 * Z_624_3_0
   + 0.0178565257782935 Z_517_1_0 * Z_199_0_0
   + 0.0119481623316461 Z_517_1_0 * Z_199_2_0
   + 0.1472899822924299 Z_517_1_0 * Z_199_3_0 + 0.4 Z_517_1_0 * Z_341_1_0
   + 5.931222210327113e-04 Z_517_1_0 * Z_341_0_0
   + 0.0938127208586377 Z_517_1_0 * Z_341_2_0
   + 0.2189829375059276 Z_517_1_0 * Z_341_3_0
   + 0.0481041247026487 Z_517_1_0 * Z_212_0_0
   + 0.0374511429402958 Z_517_1_0 * Z_237_0_0
   + 0.1478323327436647 Z_517_1_1 * Z_362_0_1
   + 0.0713194775226989 Z_517_1_1 * Z_42_0_1
   + 5.931222210327113e-04 Z_517_1_1 * Z_337_0_1
   + 5.22288e-05 Z_517_1_1 * Z_624_2_1
   + 0.020269659392327 Z_517_1_1 * Z_624_5_1
   + 1.4755546571851768e-04 Z_517_1_1 * Z_624_4_1
   + 0.0190879342986045 Z_517_1_1 * Z_624_0_1
   + 0.020269659392327 Z_517_1_1 * Z_624_3_1
   + 0.0178565257782935 Z_517_1_1 * Z_199_0_1
   + 0.0119481623316461 Z_517_1_1 * Z_199_2_1
   + 0.1472899822924299 Z_517_1_1 * Z_199_3_1 + 0.4 Z_517_1_1 * Z_341_1_1
   + 5.931222210327113e-04 Z_517_1_1 * Z_341_0_1
   + 0.0938127208586377 Z_517_1_1 * Z_341_2_1
   + 0.2189829375059276 Z_517_1_1 * Z_341_3_1
   + 0.0481041247026487 Z_517_1_1 * Z_212_0_1
   + 0.0374511429402958 Z_517_1_1 * Z_237_0_1
   + 0.1478323327436647 Z_517_1_2 * Z_362_0_2
   + 0.0713194775226989 Z_517_1_2 * Z_42_0_2
   + 5.931222210327113e-04 Z_517_1_2 * Z_337_0_2
   + 5.22288e-05 Z_517_1_2 * Z_624_2_2
   + 0.020269659392327 Z_517_1_2 * Z_624_5_2
   + 1.4755546571851768e-04 Z_517_1_2 * Z_624_4_2
   + 0.0190879342986045 Z_517_1_2 * Z_624_0_2
   + 0.020269659392327 Z_517_1_2 * Z_624_3_2
   + 0.0178565257782935 Z_517_1_2 * Z_199_0_2
   + 0.0119481623316461 Z_517_1_2 * Z_199_2_2
   + 0.1472899822924299 Z_517_1_2 * Z_199_3_2 + 0.4 Z_517_1_2 * Z_341_1_2
   + 5.931222210327113e-04 Z_517_1_2 * Z_341_0_2
   + 0.0938127208586377 Z_517_1_2 * Z_341_2_2
   + 0.2189829375059276 Z_517_1_2 * Z_341_3_2
   + 0.0481041247026487 Z_517_1_2 * Z_212_0_2
   + 0.0374511429402958 Z_517_1_2 * Z_237_0_2
   + 0.1478323327436647 Z_517_1_3 * Z_362_0_3
   + 0.0713194775226989 Z_517_1_3 * Z_42_0_3
   + 5.931222210327113e-04 Z_517_1_3 * Z_337_0_3
   + 5.22288e-05 Z_517_1_3 * Z_624_2_3
   + 0.020269659392327 Z_517_1_3 * Z_624_5_3
   + 1.4755546571851768e-04 Z_517_1_3 * Z_624_4_3
   + 0.0190879342986045 Z_517_1_3 * Z_624_0_3
   + 0.020269659392327 Z_517_1_3 * Z_624_3_3
   + 0.0178565257782935 Z_517_1_3 * Z_199_0_3
   + 0.0119481623316461 Z_517_1_3 * Z_199_2_3
   + 0.1472899822924299 Z_517_1_3 * Z_199_3_3 + 0.4 Z_517_1_3 * Z_341_1_3
   + 5.931222210327113e-04 Z_517_1_3 * Z_341_0_3
   + 0.0938127208586377 Z_517_1_3 * Z_341_2_3
   + 0.2189829375059276 Z_517_1_3 * Z_341_3_3
   + 0.0481041247026487 Z_517_1_3 * Z_212_0_3
   + 0.0374511429402958 Z_517_1_3 * Z_237_0_3
   + 0.0580904805188462 Z_362_0_0 * Z_42_0_0
   + 0.0015625 Z_362_0_0 * Z_337_0_0
   + 0.0361936980070642 Z_362_0_0 * Z_624_5_0
   + 6.14004e-05 Z_362_0_0 * Z_624_4_0
   + 0.0242842072009886 Z_362_0_0 * Z_624_0_0
   + 0.0139245801365619 Z_362_0_0 * Z_624_6_0
   + 0.0361936980070642 Z_362_0_0 * Z_624_3_0
   + 5.47177e-05 Z_362_0_0 * Z_199_0_0 + 1.07422e-05 Z_362_0_0 * Z_199_2_0
   + 0.0015625 Z_362_0_0 * Z_341_0_0
   + 0.0938127208586377 Z_362_0_0 * Z_341_2_0
   + 0.0950205919584221 Z_362_0_0 * Z_341_3_0
   + 0.0342043167748245 Z_362_0_0 * Z_212_0_0
   + 0.0312082490837973 Z_362_0_0 * Z_237_0_0
   + 0.0580904805188462 Z_362_0_1 * Z_42_0_1
   + 0.0015625 Z_362_0_1 * Z_337_0_1
   + 0.0361936980070642 Z_362_0_1 * Z_624_5_1
   + 6.14004e-05 Z_362_0_1 * Z_624_4_1
   + 0.0242842072009886 Z_362_0_1 * Z_624_0_1
   + 0.0139245801365619 Z_362_0_1 * Z_624_6_1
   + 0.0361936980070642 Z_362_0_1 * Z_624_3_1
   + 5.47177e-05 Z_362_0_1 * Z_199_0_1 + 1.07422e-05 Z_362_0_1 * Z_199_2_1
   + 0.0015625 Z_362_0_1 * Z_341_0_1
   + 0.0938127208586377 Z_362_0_1 * Z_341_2_1
   + 0.0950205919584221 Z_362_0_1 * Z_341_3_1
   + 0.0342043167748245 Z_362_0_1 * Z_212_0_1
   + 0.0312082490837973 Z_362_0_1 * Z_237_0_1
   + 0.0580904805188462 Z_362_0_2 * Z_42_0_2
   + 0.0015625 Z_362_0_2 * Z_337_0_2
   + 0.0361936980070642 Z_362_0_2 * Z_624_5_2
   + 6.14004e-05 Z_362_0_2 * Z_624_4_2
   + 0.0242842072009886 Z_362_0_2 * Z_624_0_2
   + 0.0139245801365619 Z_362_0_2 * Z_624_6_2
   + 0.0361936980070642 Z_362_0_2 * Z_624_3_2
   + 5.47177e-05 Z_362_0_2 * Z_199_0_2 + 1.07422e-05 Z_362_0_2 * Z_199_2_2
   + 0.0015625 Z_362_0_2 * Z_341_0_2
   + 0.0938127208586377 Z_362_0_2 * Z_341_2_2
   + 0.0950205919584221 Z_362_0_2 * Z_341_3_2
   + 0.0342043167748245 Z_362_0_2 * Z_212_0_2
   + 0.0312082490837973 Z_362_0_2 * Z_237_0_2
   + 0.0580904805188462 Z_362_0_3 * Z_42_0_3
   + 0.0015625 Z_362_0_3 * Z_337_0_3
   + 0.0361936980070642 Z_362_0_3 * Z_624_5_3
   + 6.14004e-05 Z_362_0_3 * Z_624_4_3
   + 0.0242842072009886 Z_362_0_3 * Z_624_0_3
   + 0.0139245801365619 Z_362_0_3 * Z_624_6_3
   + 0.0361936980070642 Z_362_0_3 * Z_624_3_3
   + 5.47177e-05 Z_362_0_3 * Z_199_0_3 + 1.07422e-05 Z_362_0_3 * Z_199_2_3
   + 0.0015625 Z_362_0_3 * Z_341_0_3
   + 0.0938127208586377 Z_362_0_3 * Z_341_2_3
   + 0.0950205919584221 Z_362_0_3 * Z_341_3_3
   + 0.0342043167748245 Z_362_0_3 * Z_212_0_3
   + 0.0312082490837973 Z_362_0_3 * Z_237_0_3
   + 0.000147929 Z_42_0_0 * Z_337_0_0 + 1.35208e-05 Z_42_0_0 * Z_624_1_0
   + 0.0114144324581215 Z_42_0_0 * Z_624_5_0
   + 1.6924157890076225e-04 Z_42_0_0 * Z_624_4_0
   + 0.0156566471172405 Z_42_0_0 * Z_624_0_0
   + 0.0114144324581215 Z_42_0_0 * Z_624_3_0
   + 0.000147929 Z_42_0_0 * Z_341_0_0
   + 0.0938127208586377 Z_42_0_0 * Z_341_2_0
   + 0.0950205919584221 Z_42_0_0 * Z_341_3_0
   + 0.0190520258129924 Z_42_0_0 * Z_212_0_0
   + 0.1309356285200818 Z_42_0_0 * Z_237_0_0
   + 0.000147929 Z_42_0_1 * Z_337_0_1 + 1.35208e-05 Z_42_0_1 * Z_624_1_1
   + 0.0114144324581215 Z_42_0_1 * Z_624_5_1
   + 1.6924157890076225e-04 Z_42_0_1 * Z_624_4_1
   + 0.0156566471172405 Z_42_0_1 * Z_624_0_1
   + 0.0114144324581215 Z_42_0_1 * Z_624_3_1
   + 0.000147929 Z_42_0_1 * Z_341_0_1
   + 0.0938127208586377 Z_42_0_1 * Z_341_2_1
   + 0.0950205919584221 Z_42_0_1 * Z_341_3_1
   + 0.0190520258129924 Z_42_0_1 * Z_212_0_1
   + 0.1309356285200818 Z_42_0_1 * Z_237_0_1
   + 0.000147929 Z_42_0_2 * Z_337_0_2 + 1.35208e-05 Z_42_0_2 * Z_624_1_2
   + 0.0114144324581215 Z_42_0_2 * Z_624_5_2
   + 1.6924157890076225e-04 Z_42_0_2 * Z_624_4_2
   + 0.0156566471172405 Z_42_0_2 * Z_624_0_2
   + 0.0114144324581215 Z_42_0_2 * Z_624_3_2
   + 0.000147929 Z_42_0_2 * Z_341_0_2
   + 0.0938127208586377 Z_42_0_2 * Z_341_2_2
   + 0.0950205919584221 Z_42_0_2 * Z_341_3_2
   + 0.0190520258129924 Z_42_0_2 * Z_212_0_2
   + 0.1309356285200818 Z_42_0_2 * Z_237_0_2
   + 0.000147929 Z_42_0_3 * Z_337_0_3 + 1.35208e-05 Z_42_0_3 * Z_624_1_3
   + 0.0114144324581215 Z_42_0_3 * Z_624_5_3
   + 1.6924157890076225e-04 Z_42_0_3 * Z_624_4_3
   + 0.0156566471172405 Z_42_0_3 * Z_624_0_3
   + 0.0114144324581215 Z_42_0_3 * Z_624_3_3
   + 0.000147929 Z_42_0_3 * Z_341_0_3
   + 0.0938127208586377 Z_42_0_3 * Z_341_2_3
   + 0.0950205919584221 Z_42_0_3 * Z_341_3_3
   + 0.0190520258129924 Z_42_0_3 * Z_212_0_3
   + 0.1309356285200818 Z_42_0_3 * Z_237_0_3
   + 1.8107741059302849e-04 Z_337_0_0 * Z_624_2_0
   + 1.6628236490360811e-04 Z_337_0_0 * Z_624_0_0
   + 9.5645e-05 Z_337_0_0 * Z_624_3_0 + 1.21122e-05 Z_337_0_0 * Z_199_0_0
   + 0.4 Z_337_0_0 * Z_341_0_0 + 2.82062e-05 Z_337_0_0 * Z_212_0_0
   + 1.8107741059302849e-04 Z_337_0_1 * Z_624_2_1
   + 1.6628236490360811e-04 Z_337_0_1 * Z_624_0_1
   + 9.5645e-05 Z_337_0_1 * Z_624_3_1 + 1.21122e-05 Z_337_0_1 * Z_199_0_1
   + 0.4 Z_337_0_1 * Z_341_0_1 + 2.82062e-05 Z_337_0_1 * Z_212_0_1
   + 1.8107741059302849e-04 Z_337_0_2 * Z_624_2_2
   + 1.6628236490360811e-04 Z_337_0_2 * Z_624_0_2
   + 9.5645e-05 Z_337_0_2 * Z_624_3_2 + 1.21122e-05 Z_337_0_2 * Z_199_0_2
   + 0.4 Z_337_0_2 * Z_341_0_2 + 2.82062e-05 Z_337_0_2 * Z_212_0_2
   + 1.8107741059302849e-04 Z_337_0_3 * Z_624_2_3
   + 1.6628236490360811e-04 Z_337_0_3 * Z_624_0_3
   + 9.5645e-05 Z_337_0_3 * Z_624_3_3 + 1.21122e-05 Z_337_0_3 * Z_199_0_3
   + 0.4 Z_337_0_3 * Z_341_0_3 + 2.82062e-05 Z_337_0_3 * Z_212_0_3
   + 0.0014692378328742 Z_624_2_0 * Z_199_0_0
   + 1.8107741059302849e-04 Z_624_2_0 * Z_341_0_0
   + 0.4 Z_624_2_0 * Z_212_0_0 + 0.0014692378328742 Z_624_2_1 * Z_199_0_1
   + 1.8107741059302849e-04 Z_624_2_1 * Z_341_0_1
   + 0.4 Z_624_2_1 * Z_212_0_1 + 0.0014692378328742 Z_624_2_2 * Z_199_0_2
   + 1.8107741059302849e-04 Z_624_2_2 * Z_341_0_2
   + 0.4 Z_624_2_2 * Z_212_0_2 + 0.0014692378328742 Z_624_2_3 * Z_199_0_3
   + 1.8107741059302849e-04 Z_624_2_3 * Z_341_0_3
   + 0.4 Z_624_2_3 * Z_212_0_3 + 0.0938127208586377 Z_624_5_0 * Z_341_2_0
   + 0.0950205919584221 Z_624_5_0 * Z_341_3_0
   + 0.0663120837296641 Z_624_5_0 * Z_212_0_0
   + 0.0623364813803483 Z_624_5_0 * Z_237_0_0
   + 0.0938127208586377 Z_624_5_1 * Z_341_2_1
   + 0.0950205919584221 Z_624_5_1 * Z_341_3_1
   + 0.0663120837296641 Z_624_5_1 * Z_212_0_1
   + 0.0623364813803483 Z_624_5_1 * Z_237_0_1
   + 0.0938127208586377 Z_624_5_2 * Z_341_2_2
   + 0.0950205919584221 Z_624_5_2 * Z_341_3_2
   + 0.0663120837296641 Z_624_5_2 * Z_212_0_2
   + 0.0623364813803483 Z_624_5_2 * Z_237_0_2
   + 0.0938127208586377 Z_624_5_3 * Z_341_2_3
   + 0.0950205919584221 Z_624_5_3 * Z_341_3_3
   + 0.0663120837296641 Z_624_5_3 * Z_212_0_3
   + 0.0623364813803483 Z_624_5_3 * Z_237_0_3
   + 8.54653e-06 Z_624_4_0 * Z_212_0_0 + 8.54653e-06 Z_624_4_1 * Z_212_0_1
   + 8.54653e-06 Z_624_4_2 * Z_212_0_2 + 8.54653e-06 Z_624_4_3 * Z_212_0_3
   + 0.00182153476877618 Z_624_0_0 * Z_199_0_0
   + 0.00118947083645209 Z_624_0_0 * Z_199_3_0
   + 0.00118947083645209 Z_624_0_0 * Z_341_1_0
   + 1.6628236490360811e-04 Z_624_0_0 * Z_341_0_0
   + 0.0938127208586377 Z_624_0_0 * Z_341_2_0
   + 0.0950205919584221 Z_624_0_0 * Z_341_3_0
   + 0.0278587657969873 Z_624_0_0 * Z_212_0_0
   + 0.00198711684157421 Z_624_0_0 * Z_237_0_0
   + 0.00182153476877618 Z_624_0_1 * Z_199_0_1
   + 0.00118947083645209 Z_624_0_1 * Z_199_3_1
   + 0.00118947083645209 Z_624_0_1 * Z_341_1_1
   + 1.6628236490360811e-04 Z_624_0_1 * Z_341_0_1
   + 0.0938127208586377 Z_624_0_1 * Z_341_2_1
   + 0.0950205919584221 Z_624_0_1 * Z_341_3_1
   + 0.0278587657969873 Z_624_0_1 * Z_212_0_1
   + 0.00198711684157421 Z_624_0_1 * Z_237_0_1
   + 0.00182153476877618 Z_624_0_2 * Z_199_0_2
   + 0.00118947083645209 Z_624_0_2 * Z_199_3_2
   + 0.00118947083645209 Z_624_0_2 * Z_341_1_2
   + 1.6628236490360811e-04 Z_624_0_2 * Z_341_0_2
   + 0.0938127208586377 Z_624_0_2 * Z_341_2_2
   + 0.0950205919584221 Z_624_0_2 * Z_341_3_2
   + 0.0278587657969873 Z_624_0_2 * Z_212_0_2
   + 0.00198711684157421 Z_624_0_2 * Z_237_0_2
   + 0.00182153476877618 Z_624_0_3 * Z_199_0_3
   + 0.00118947083645209 Z_624_0_3 * Z_199_3_3
   + 0.00118947083645209 Z_624_0_3 * Z_341_1_3
   + 1.6628236490360811e-04 Z_624_0_3 * Z_341_0_3
   + 0.0938127208586377 Z_624_0_3 * Z_341_2_3
   + 0.0950205919584221 Z_624_0_3 * Z_341_3_3
   + 0.0278587657969873 Z_624_0_3 * Z_212_0_3
   + 0.00198711684157421 Z_624_0_3 * Z_237_0_3
   + 0.0353415136354261 Z_624_6_0 * Z_212_0_0
   + 0.0623364813803483 Z_624_6_0 * Z_237_0_0
   + 0.0353415136354261 Z_624_6_1 * Z_212_0_1
   + 0.0623364813803483 Z_624_6_1 * Z_237_0_1
   + 0.0353415136354261 Z_624_6_2 * Z_212_0_2
   + 0.0623364813803483 Z_624_6_2 * Z_237_0_2
   + 0.0353415136354261 Z_624_6_3 * Z_212_0_3
   + 0.0623364813803483 Z_624_6_3 * Z_237_0_3
   + 0.0010477401541788 Z_624_3_0 * Z_199_0_0
   + 6.8417928602746629e-04 Z_624_3_0 * Z_199_3_0
   + 6.8417928602746629e-04 Z_624_3_0 * Z_341_1_0
   + 9.5645e-05 Z_624_3_0 * Z_341_0_0
   + 0.0938127208586377 Z_624_3_0 * Z_341_2_0
   + 0.0950205919584221 Z_624_3_0 * Z_341_3_0
   + 0.0663120837296641 Z_624_3_0 * Z_212_0_0
   + 0.0623364813803483 Z_624_3_0 * Z_237_0_0
   + 0.0010477401541788 Z_624_3_1 * Z_199_0_1
   + 6.8417928602746629e-04 Z_624_3_1 * Z_199_3_1
   + 6.8417928602746629e-04 Z_624_3_1 * Z_341_1_1
   + 9.5645e-05 Z_624_3_1 * Z_341_0_1
   + 0.0938127208586377 Z_624_3_1 * Z_341_2_1
   + 0.0950205919584221 Z_624_3_1 * Z_341_3_1
   + 0.0663120837296641 Z_624_3_1 * Z_212_0_1
   + 0.0623364813803483 Z_624_3_1 * Z_237_0_1
   + 0.0010477401541788 Z_624_3_2 * Z_199_0_2
   + 6.8417928602746629e-04 Z_624_3_2 * Z_199_3_2
   + 6.8417928602746629e-04 Z_624_3_2 * Z_341_1_2
   + 9.5645e-05 Z_624_3_2 * Z_341_0_2
   + 0.0938127208586377 Z_624_3_2 * Z_341_2_2
   + 0.0950205919584221 Z_624_3_2 * Z_341_3_2
   + 0.0663120837296641 Z_624_3_2 * Z_212_0_2
   + 0.0623364813803483 Z_624_3_2 * Z_237_0_2
   + 0.0010477401541788 Z_624_3_3 * Z_199_0_3
   + 6.8417928602746629e-04 Z_624_3_3 * Z_199_3_3
   + 6.8417928602746629e-04 Z_624_3_3 * Z_341_1_3
   + 9.5645e-05 Z_624_3_3 * Z_341_0_3
   + 0.0938127208586377 Z_624_3_3 * Z_341_2_3
   + 0.0950205919584221 Z_624_3_3 * Z_341_3_3
   + 0.0663120837296641 Z_624_3_3 * Z_212_0_3
   + 0.0623364813803483 Z_624_3_3 * Z_237_0_3
   + 1.21122e-05 Z_199_0_0 * Z_341_0_0
   + 0.0014692378328742 Z_199_0_0 * Z_212_0_0
   + 1.21122e-05 Z_199_0_1 * Z_341_0_1
   + 0.0014692378328742 Z_199_0_1 * Z_212_0_1
   + 1.21122e-05 Z_199_0_2 * Z_341_0_2
   + 0.0014692378328742 Z_199_0_2 * Z_212_0_2
   + 1.21122e-05 Z_199_0_3 * Z_341_0_3
   + 0.0014692378328742 Z_199_0_3 * Z_212_0_3
   + 8.02671e-05 Z_199_2_0 * Z_237_0_0 + 8.02671e-05 Z_199_2_1 * Z_237_0_1
   + 8.02671e-05 Z_199_2_2 * Z_237_0_2 + 8.02671e-05 Z_199_2_3 * Z_237_0_3
   + 0.4 Z_199_3_0 * Z_341_1_0 + 0.0214134713833876 Z_199_3_0 * Z_237_0_0
   + 0.4 Z_199_3_1 * Z_341_1_1 + 0.0214134713833876 Z_199_3_1 * Z_237_0_1
   + 0.4 Z_199_3_2 * Z_341_1_2 + 0.0214134713833876 Z_199_3_2 * Z_237_0_2
   + 0.4 Z_199_3_3 * Z_341_1_3 + 0.0214134713833876 Z_199_3_3 * Z_237_0_3
   + 2.82062e-05 Z_341_0_0 * Z_212_0_0 + 2.82062e-05 Z_341_0_1 * Z_212_0_1
   + 2.82062e-05 Z_341_0_2 * Z_212_0_2 + 2.82062e-05 Z_341_0_3 * Z_212_0_3
   + 0.0938127208586377 Z_341_2_0 * Z_212_0_0
   + 0.0938127208586377 Z_341_2_1 * Z_212_0_1
   + 0.0938127208586377 Z_341_2_2 * Z_212_0_2
   + 0.0938127208586377 Z_341_2_3 * Z_212_0_3
   + 0.0950205919584221 Z_341_3_0 * Z_212_0_0
   + 0.0950205919584221 Z_341_3_1 * Z_212_0_1
   + 0.0950205919584221 Z_341_3_2 * Z_212_0_2
   + 0.0950205919584221 Z_341_3_3 * Z_212_0_3
   + 0.0623364813803483 Z_212_0_0 * Z_237_0_0
   + 0.0623364813803483 Z_212_0_1 * Z_237_0_1
   + 0.0623364813803483 Z_212_0_2 * Z_237_0_2
   + 0.0623364813803483 Z_212_0_3 * Z_237_0_3 ] / 2 
Subject To
 constraint1_6380: Z_638_0_0 + Z_638_0_1 + Z_638_0_2 + Z_638_0_3 <= 1
 constraint1_5172: Z_517_2_0 + Z_517_2_1 + Z_517_2_2 + Z_517_2_3 <= 1
 constraint1_5170: Z_517_0_0 + Z_517_0_1 + Z_517_0_2 + Z_517_0_3 <= 1
 constraint1_5171: Z_517_1_0 + Z_517_1_1 + Z_517_1_2 + Z_517_1_3 <= 1
 constraint1_3620: Z_362_0_0 + Z_362_0_1 + Z_362_0_2 + Z_362_0_3 <= 1
 constraint1_420: Z_42_0_0 + Z_42_0_1 + Z_42_0_2 + Z_42_0_3 <= 1
 constraint1_3370: Z_337_0_0 + Z_337_0_1 + Z_337_0_2 + Z_337_0_3 <= 1
 constraint1_6242: Z_624_2_0 + Z_624_2_1 + Z_624_2_2 + Z_624_2_3 <= 1
 constraint1_6241: Z_624_1_0 + Z_624_1_1 + Z_624_1_2 + Z_624_1_3 <= 1
 constraint1_6245: Z_624_5_0 + Z_624_5_1 + Z_624_5_2 + Z_624_5_3 <= 1
 constraint1_6244: Z_624_4_0 + Z_624_4_1 + Z_624_4_2 + Z_624_4_3 <= 1
 constraint1_6240: Z_624_0_0 + Z_624_0_1 + Z_624_0_2 + Z_624_0_3 <= 1
 constraint1_6246: Z_624_6_0 + Z_624_6_1 + Z_624_6_2 + Z_624_6_3 <= 1
 constraint1_6243: Z_624_3_0 + Z_624_3_1 + Z_624_3_2 + Z_624_3_3 <= 1
 constraint1_1991: Z_199_1_0 + Z_199_1_1 + Z_199_1_2 + Z_199_1_3 <= 1
 constraint1_1990: Z_199_0_0 + Z_199_0_1 + Z_199_0_2 + Z_199_0_3 <= 1
 constraint1_1992: Z_199_2_0 + Z_199_2_1 + Z_199_2_2 + Z_199_2_3 <= 1
 constraint1_1993: Z_199_3_0 + Z_199_3_1 + Z_199_3_2 + Z_199_3_3 <= 1
 constraint1_3411: Z_341_1_0 + Z_341_1_1 + Z_341_1_2 + Z_341_1_3 <= 1
 constraint1_3410: Z_341_0_0 + Z_341_0_1 + Z_341_0_2 + Z_341_0_3 <= 1
 constraint1_3412: Z_341_2_0 + Z_341_2_1 + Z_341_2_2 + Z_341_2_3 <= 1
 constraint1_3413: Z_341_3_0 + Z_341_3_1 + Z_341_3_2 + Z_341_3_3 <= 1
 constraint1_100: Z_10_0_0 + Z_10_0_1 + Z_10_0_2 + Z_10_0_3 <= 1
 constraint1_2120: Z_212_0_0 + Z_212_0_1 + Z_212_0_2 + Z_212_0_3 <= 1
 constraint1_2370: Z_237_0_0 + Z_237_0_1 + Z_237_0_2 + Z_237_0_3 <= 1
 constraint2_6380: Z_638_0_0 <= 1
 constraint2_6381: Z_638_0_1 <= 1
 constraint2_6382: Z_638_0_2 <= 1
 constraint2_6383: Z_638_0_3 <= 1
 constraint2_5170: Z_517_2_0 + Z_517_0_0 + Z_517_1_0 <= 1
 constraint2_5171: Z_517_2_1 + Z_517_0_1 + Z_517_1_1 <= 1
 constraint2_5172: Z_517_2_2 + Z_517_0_2 + Z_517_1_2 <= 1
 constraint2_5173: Z_517_2_3 + Z_517_0_3 + Z_517_1_3 <= 1
 constraint2_3620: Z_362_0_0 <= 1
 constraint2_3621: Z_362_0_1 <= 1
 constraint2_3622: Z_362_0_2 <= 1
 constraint2_3623: Z_362_0_3 <= 1
 constraint2_420: Z_42_0_0 <= 1
 constraint2_421: Z_42_0_1 <= 1
 constraint2_422: Z_42_0_2 <= 1
 constraint2_423: Z_42_0_3 <= 1
 constraint2_3370: Z_337_0_0 <= 1
 constraint2_3371: Z_337_0_1 <= 1
 constraint2_3372: Z_337_0_2 <= 1
 constraint2_3373: Z_337_0_3 <= 1
 constraint2_6240: Z_624_2_0 + Z_624_1_0 + Z_624_5_0 + Z_624_4_0
   + Z_624_0_0 + Z_624_6_0 + Z_624_3_0 <= 1
 constraint2_6241: Z_624_2_1 + Z_624_1_1 + Z_624_5_1 + Z_624_4_1
   + Z_624_0_1 + Z_624_6_1 + Z_624_3_1 <= 1
 constraint2_6242: Z_624_2_2 + Z_624_1_2 + Z_624_5_2 + Z_624_4_2
   + Z_624_0_2 + Z_624_6_2 + Z_624_3_2 <= 1
 constraint2_6243: Z_624_2_3 + Z_624_1_3 + Z_624_5_3 + Z_624_4_3
   + Z_624_0_3 + Z_624_6_3 + Z_624_3_3 <= 1
 constraint2_1990: Z_199_1_0 + Z_199_0_0 + Z_199_2_0 + Z_199_3_0 <= 1
 constraint2_1991: Z_199_1_1 + Z_199_0_1 + Z_199_2_1 + Z_199_3_1 <= 1
 constraint2_1992: Z_199_1_2 + Z_199_0_2 + Z_199_2_2 + Z_199_3_2 <= 1
 constraint2_1993: Z_199_1_3 + Z_199_0_3 + Z_199_2_3 + Z_199_3_3 <= 1
 constraint2_3410: Z_341_1_0 + Z_341_0_0 + Z_341_2_0 + Z_341_3_0 <= 1
 constraint2_3411: Z_341_1_1 + Z_341_0_1 + Z_341_2_1 + Z_341_3_1 <= 1
 constraint2_3412: Z_341_1_2 + Z_341_0_2 + Z_341_2_2 + Z_341_3_2 <= 1
 constraint2_3413: Z_341_1_3 + Z_341_0_3 + Z_341_2_3 + Z_341_3_3 <= 1
 constraint2_100: Z_10_0_0 <= 1
 constraint2_101: Z_10_0_1 <= 1
 constraint2_102: Z_10_0_2 <= 1
 constraint2_103: Z_10_0_3 <= 1
 constraint2_2120: Z_212_0_0 <= 1
 constraint2_2121: Z_212_0_1 <= 1
 constraint2_2122: Z_212_0_2 <= 1
 constraint2_2123: Z_212_0_3 <= 1
 constraint2_2370: Z_237_0_0 <= 1
 constraint2_2371: Z_237_0_1 <= 1
 constraint2_2372: Z_237_0_2 <= 1
 constraint2_2373: Z_237_0_3 <= 1
Bounds
Binaries
 Z_638_0_0 Z_638_0_1 Z_638_0_2 Z_638_0_3 Z_517_2_0 Z_517_2_1 Z_517_2_2
 Z_517_2_3 Z_517_0_0 Z_517_0_1 Z_517_0_2 Z_517_0_3 Z_517_1_0 Z_517_1_1
 Z_517_1_2 Z_517_1_3 Z_362_0_0 Z_362_0_1 Z_362_0_2 Z_362_0_3 Z_42_0_0
 Z_42_0_1 Z_42_0_2 Z_42_0_3 Z_337_0_0 Z_337_0_1 Z_337_0_2 Z_337_0_3
 Z_624_2_0 Z_624_2_1 Z_624_2_2 Z_624_2_3 Z_624_1_0 Z_624_1_1 Z_624_1_2
 Z_624_1_3 Z_624_5_0 Z_624_5_1 Z_624_5_2 Z_624_5_3 Z_624_4_0 Z_624_4_1
 Z_624_4_2 Z_624_4_3 Z_624_0_0 Z_624_0_1 Z_624_0_2 Z_624_0_3 Z_624_6_0
 Z_624_6_1 Z_624_6_2 Z_624_6_3 Z_624_3_0 Z_624_3_1 Z_624_3_2 Z_624_3_3
 Z_199_1_0 Z_199_1_1 Z_199_1_2 Z_199_1_3 Z_199_0_0 Z_199_0_1 Z_199_0_2
 Z_199_0_3 Z_199_2_0 Z_199_2_1 Z_199_2_2 Z_199_2_3 Z_199_3_0 Z_199_3_1
 Z_199_3_2 Z_199_3_3 Z_341_1_0 Z_341_1_1 Z_341_1_2 Z_341_1_3 Z_341_0_0
 Z_341_0_1 Z_341_0_2 Z_341_0_3 Z_341_2_0 Z_341_2_1 Z_341_2_2 Z_341_2_3
 Z_341_3_0 Z_341_3_1 Z_341_3_2 Z_341_3_3 Z_10_0_0 Z_10_0_1 Z_10_0_2
 Z_10_0_3 Z_212_0_0 Z_212_0_1 Z_212_0_2 Z_212_0_3 Z_237_0_0 Z_237_0_1
 Z_237_0_2 Z_237_0_3
End
